nK = 1795;
nT = 8;
nI = 21;
L = 35;
TT = 388;
np = 1;
nc = 3;
b = [29, 32, 34, 54, 20, 43, 65, 46, 25, 21, 21, 20, 62, 24, 22, 49, 27, 50, 42, 28, 67];
d = [107, 121, 88, 84, 107, 98, 115, 131, 75, 126, 109, 132, 146, 74, 99, 80, 62, 116, 92, 73, 128];
m = [2.3, 1.5, 2.4, 1, 2.4, 1, 1.2, 1.9, 2.5, 2.4, 1.9, 1.3, 1.2, 1.8, 2.2, 2.2, 1.8, 2.2, 1.5, 2.2, 2.4];
pt = [0.35, 0.21, 0.35, 0.27, 0.23, 0.22, 0.23, 0.33];
st = [18.55, 11.13, 18.55, 13.77, 9.43, 10.34, 12.65, 13.53];
arc = {<1, 0, 1, 1, 0, 0, 0, [1, 1, 1, 1, 1, 1, 1, 1]>, <2, 1, 2, 1, 0, 0, 0, [1, 1, 1, 1, 1, 1, 1, 1]>, <3, 2, 3, 1, 0, 0, 0, [1, 1, 1, 1, 1, 1, 1, 1]>, <4, 3, 4, 1, 0, 0, 0, [1, 1, 1, 1, 1, 1, 1, 1]>, <5, 4, 5, 1, 0, 0, 0, [1, 1, 1, 1, 1, 1, 1, 1]>, <6, 5, 6, 1, 0, 0, 0, [1, 1, 1, 1, 1, 1, 1, 1]>, <7, 6, 7, 1, 0, 0, 0, [1, 1, 1, 1, 1, 1, 1, 1]>, <8, 7, 8, 1, 0, 0, 0, [1, 1, 1, 1, 1, 1, 1, 1]>, <9, 8, 9, 1, 0, 0, 0, [1, 1, 1, 1, 1, 1, 1, 1]>, <10, 9, 10, 1, 0, 0, 0, [1, 1, 1, 1, 1, 1, 1, 1]>, <11, 10, 11, 1, 0, 0, 0, [1, 1, 1, 1, 1, 1, 1, 1]>, <12, 11, 12, 1, 0, 0, 0, [1, 1, 1, 1, 1, 1, 1, 1]>, <13, 12, 13, 1, 0, 0, 0, [1, 1, 1, 1, 1, 1, 1, 1]>, <14, 13, 14, 1, 0, 0, 0, [1, 1, 1, 1, 1, 1, 1, 1]>, <15, 14, 15, 1, 0, 0, 0, [1, 1, 1, 1, 1, 1, 1, 1]>, <16, 15, 16, 1, 0, 0, 0, [1, 1, 1, 1, 1, 1, 1, 1]>, <17, 16, 17, 1, 0, 0, 0, [1, 1, 1, 1, 1, 1, 1, 1]>, <18, 17, 18, 1, 0, 0, 0, [1, 1, 1, 1, 1, 1, 1, 1]>, <19, 18, 19, 1, 0, 0, 0, [1, 1, 1, 1, 1, 1, 1, 1]>, <20, 19, 20, 1, 0, 0, 0, [1, 1, 1, 1, 1, 1, 1, 1]>, <21, 20, 21, 1, 0, 0, 0, [1, 1, 1, 1, 1, 1, 1, 1]>, <22, 21, 22, 1, 0, 0, 0, [1, 1, 1, 1, 1, 1, 1, 1]>, <23, 22, 23, 1, 0, 0, 0, [1, 1, 1, 1, 1, 1, 1, 1]>, <24, 23, 24, 1, 0, 0, 0, [1, 1, 1, 1, 1, 1, 1, 1]>, <25, 24, 25, 1, 0, 0, 0, [1, 1, 1, 1, 1, 1, 1, 1]>, <26, 25, 26, 1, 0, 0, 0, [1, 1, 1, 1, 1, 1, 1, 1]>, <27, 26, 27, 1, 0, 0, 0, [1, 1, 1, 1, 1, 1, 1, 1]>, <28, 27, 28, 1, 0, 0, 0, [1, 1, 1, 1, 1, 1, 1, 1]>, <29, 28, 29, 1, 0, 0, 0, [1, 1, 1, 1, 1, 1, 1, 1]>, <30, 29, 30, 1, 0, 0, 0, [1, 1, 1, 1, 1, 1, 1, 1]>, <31, 30, 31, 1, 0, 0, 0, [1, 1, 1, 1, 1, 1, 1, 1]>, <32, 31, 32, 1, 0, 0, 0, [1, 1, 1, 1, 1, 1, 1, 1]>, <33, 32, 33, 1, 0, 0, 0, [1, 1, 1, 1, 1, 1, 1, 1]>, <34, 33, 34, 1, 0, 0, 0, [1, 1, 1, 1, 1, 1, 1, 1]>, <35, 34, 35, 1, 0, 0, 0, [1, 1, 1, 1, 1, 1, 1, 1]>, <36, 3, 17, 14, 1, 0, 0, [0, 1, 1, 1, 1, 0, 0, 0]>, <37, 4, 18, 14, 1, 0, 0, [0, 1, 1, 1, 1, 0, 0, 0]>, <38, 5, 19, 14, 1, 0, 0, [0, 1, 1, 1, 1, 0, 0, 0]>, <39, 6, 20, 14, 1, 0, 0, [0, 1, 1, 1, 1, 0, 0, 0]>, <40, 12, 26, 14, 1, 0, 0, [0, 1, 1, 1, 1, 0, 0, 0]>, <41, 13, 27, 14, 1, 0, 0, [0, 1, 1, 1, 1, 0, 0, 0]>, <42, 14, 28, 14, 1, 0, 0, [0, 1, 1, 1, 1, 0, 0, 0]>, <43, 15, 29, 14, 1, 0, 0, [0, 1, 1, 1, 1, 0, 0, 0]>, <44, 17, 31, 14, 1, 0, 0, [0, 1, 1, 1, 1, 0, 0, 0]>, <45, 18, 32, 14, 1, 0, 0, [0, 1, 1, 1, 1, 0, 0, 0]>, <46, 19, 33, 14, 1, 0, 0, [0, 1, 1, 1, 1, 0, 0, 0]>, <47, 20, 34, 14, 1, 0, 0, [0, 1, 1, 1, 1, 0, 0, 0]>, <48, 21, 35, 14, 1, 0, 0, [0, 1, 1, 1, 1, 0, 0, 0]>, <49, 1, 17, 16, 2, 1, 0, [0, 0, 1, 1, 1, 1, 0, 0]>, <50, 2, 18, 16, 2, 1, 0, [0, 0, 1, 1, 1, 1, 0, 0]>, <51, 3, 19, 16, 2, 1, 0, [0, 0, 1, 1, 1, 1, 0, 0]>, <52, 4, 20, 16, 2, 1, 0, [0, 0, 1, 1, 1, 1, 0, 0]>, <53, 5, 21, 16, 2, 1, 0, [0, 0, 1, 1, 1, 1, 0, 0]>, <54, 6, 22, 16, 2, 1, 0, [0, 0, 1, 1, 1, 1, 0, 0]>, <55, 10, 26, 16, 2, 1, 0, [0, 0, 1, 1, 1, 1, 0, 0]>, <56, 11, 27, 16, 2, 1, 0, [0, 0, 1, 1, 1, 1, 0, 0]>, <57, 12, 28, 16, 2, 1, 0, [0, 0, 1, 1, 1, 1, 0, 0]>, <58, 13, 29, 16, 2, 1, 0, [0, 0, 1, 1, 1, 1, 0, 0]>, <59, 14, 30, 16, 2, 1, 0, [0, 0, 1, 1, 1, 1, 0, 0]>, <60, 15, 31, 16, 2, 1, 0, [0, 0, 1, 1, 1, 1, 0, 0]>, <61, 16, 32, 16, 2, 1, 0, [0, 0, 1, 1, 1, 1, 0, 0]>, <62, 17, 33, 16, 2, 1, 0, [0, 0, 1, 1, 1, 1, 0, 0]>, <63, 18, 34, 16, 2, 1, 0, [0, 0, 1, 1, 1, 1, 0, 0]>, <64, 19, 35, 16, 2, 1, 0, [0, 0, 1, 1, 1, 1, 0, 0]>, <65, 1, 17, 16, 3, 0, 0, [0, 1, 1, 1, 1, 0, 0, 0]>, <66, 2, 18, 16, 3, 0, 0, [0, 1, 1, 1, 1, 0, 0, 0]>, <67, 3, 19, 16, 3, 0, 0, [0, 1, 1, 1, 1, 0, 0, 0]>, <68, 4, 20, 16, 3, 0, 0, [0, 1, 1, 1, 1, 0, 0, 0]>, <69, 5, 21, 16, 3, 0, 0, [0, 1, 1, 1, 1, 0, 0, 0]>, <70, 6, 22, 16, 3, 0, 0, [0, 1, 1, 1, 1, 0, 0, 0]>, <71, 10, 26, 16, 3, 0, 0, [0, 1, 1, 1, 1, 0, 0, 0]>, <72, 11, 27, 16, 3, 0, 0, [0, 1, 1, 1, 1, 0, 0, 0]>, <73, 12, 28, 16, 3, 0, 0, [0, 1, 1, 1, 1, 0, 0, 0]>, <74, 13, 29, 16, 3, 0, 0, [0, 1, 1, 1, 1, 0, 0, 0]>, <75, 14, 30, 16, 3, 0, 0, [0, 1, 1, 1, 1, 0, 0, 0]>, <76, 15, 31, 16, 3, 0, 0, [0, 1, 1, 1, 1, 0, 0, 0]>, <77, 16, 32, 16, 3, 0, 0, [0, 1, 1, 1, 1, 0, 0, 0]>, <78, 17, 33, 16, 3, 0, 0, [0, 1, 1, 1, 1, 0, 0, 0]>, <79, 18, 34, 16, 3, 0, 0, [0, 1, 1, 1, 1, 0, 0, 0]>, <80, 19, 35, 16, 3, 0, 0, [0, 1, 1, 1, 1, 0, 0, 0]>, <81, 1, 17, 16, 4, 0, 0, [1, 1, 0, 0, 0, 0, 1, 1]>, <82, 2, 18, 16, 4, 0, 0, [1, 1, 0, 0, 0, 0, 1, 1]>, <83, 3, 19, 16, 4, 0, 0, [1, 1, 0, 0, 0, 0, 1, 1]>, <84, 4, 20, 16, 4, 0, 0, [1, 1, 0, 0, 0, 0, 1, 1]>, <85, 5, 21, 16, 4, 0, 0, [1, 1, 0, 0, 0, 0, 1, 1]>, <86, 6, 22, 16, 4, 0, 0, [1, 1, 0, 0, 0, 0, 1, 1]>, <87, 10, 26, 16, 4, 0, 0, [1, 1, 0, 0, 0, 0, 1, 1]>, <88, 11, 27, 16, 4, 0, 0, [1, 1, 0, 0, 0, 0, 1, 1]>, <89, 12, 28, 16, 4, 0, 0, [1, 1, 0, 0, 0, 0, 1, 1]>, <90, 13, 29, 16, 4, 0, 0, [1, 1, 0, 0, 0, 0, 1, 1]>, <91, 14, 30, 16, 4, 0, 0, [1, 1, 0, 0, 0, 0, 1, 1]>, <92, 15, 31, 16, 4, 0, 0, [1, 1, 0, 0, 0, 0, 1, 1]>, <93, 16, 32, 16, 4, 0, 0, [1, 1, 0, 0, 0, 0, 1, 1]>, <94, 17, 33, 16, 4, 0, 0, [1, 1, 0, 0, 0, 0, 1, 1]>, <95, 18, 34, 16, 4, 0, 0, [1, 1, 0, 0, 0, 0, 1, 1]>, <96, 19, 35, 16, 4, 0, 0, [1, 1, 0, 0, 0, 0, 1, 1]>, <97, 0, 18, 18, 5, 1, 0, [0, 0, 1, 1, 1, 1, 0, 0]>, <98, 1, 19, 18, 5, 1, 0, [0, 0, 1, 1, 1, 1, 0, 0]>, <99, 2, 20, 18, 5, 1, 0, [0, 0, 1, 1, 1, 1, 0, 0]>, <100, 3, 21, 18, 5, 1, 0, [0, 0, 1, 1, 1, 1, 0, 0]>, <101, 4, 22, 18, 5, 1, 0, [0, 0, 1, 1, 1, 1, 0, 0]>, <102, 5, 23, 18, 5, 1, 0, [0, 0, 1, 1, 1, 1, 0, 0]>, <103, 6, 24, 18, 5, 1, 0, [0, 0, 1, 1, 1, 1, 0, 0]>, <104, 8, 26, 18, 5, 1, 0, [0, 0, 1, 1, 1, 1, 0, 0]>, <105, 9, 27, 18, 5, 1, 0, [0, 0, 1, 1, 1, 1, 0, 0]>, <106, 10, 28, 18, 5, 1, 0, [0, 0, 1, 1, 1, 1, 0, 0]>, <107, 11, 29, 18, 5, 1, 0, [0, 0, 1, 1, 1, 1, 0, 0]>, <108, 12, 30, 18, 5, 1, 0, [0, 0, 1, 1, 1, 1, 0, 0]>, <109, 13, 31, 18, 5, 1, 0, [0, 0, 1, 1, 1, 1, 0, 0]>, <110, 14, 32, 18, 5, 1, 0, [0, 0, 1, 1, 1, 1, 0, 0]>, <111, 15, 33, 18, 5, 1, 0, [0, 0, 1, 1, 1, 1, 0, 0]>, <112, 16, 34, 18, 5, 1, 0, [0, 0, 1, 1, 1, 1, 0, 0]>, <113, 17, 35, 18, 5, 1, 0, [0, 0, 1, 1, 1, 1, 0, 0]>, <114, 3, 17, 14, 6, 0, 1, [0, 0, 0, 0, 1, 1, 1, 1]>, <115, 4, 18, 14, 6, 0, 1, [0, 0, 0, 0, 1, 1, 1, 1]>, <116, 5, 19, 14, 6, 0, 1, [0, 0, 0, 0, 1, 1, 1, 1]>, <117, 6, 20, 14, 6, 0, 1, [0, 0, 0, 0, 1, 1, 1, 1]>, <118, 12, 26, 14, 6, 0, 1, [0, 0, 0, 0, 1, 1, 1, 1]>, <119, 13, 27, 14, 6, 0, 1, [0, 0, 0, 0, 1, 1, 1, 1]>, <120, 14, 28, 14, 6, 0, 1, [0, 0, 0, 0, 1, 1, 1, 1]>, <121, 15, 29, 14, 6, 0, 1, [0, 0, 0, 0, 1, 1, 1, 1]>, <122, 17, 31, 14, 6, 0, 1, [0, 0, 0, 0, 1, 1, 1, 1]>, <123, 18, 32, 14, 6, 0, 1, [0, 0, 0, 0, 1, 1, 1, 1]>, <124, 19, 33, 14, 6, 0, 1, [0, 0, 0, 0, 1, 1, 1, 1]>, <125, 20, 34, 14, 6, 0, 1, [0, 0, 0, 0, 1, 1, 1, 1]>, <126, 21, 35, 14, 6, 0, 1, [0, 0, 0, 0, 1, 1, 1, 1]>, <127, 0, 19, 19, 7, 0, 1, [1, 0, 0, 0, 0, 1, 1, 1]>, <128, 1, 20, 19, 7, 0, 1, [1, 0, 0, 0, 0, 1, 1, 1]>, <129, 2, 21, 19, 7, 0, 1, [1, 0, 0, 0, 0, 1, 1, 1]>, <130, 3, 22, 19, 7, 0, 1, [1, 0, 0, 0, 0, 1, 1, 1]>, <131, 4, 23, 19, 7, 0, 1, [1, 0, 0, 0, 0, 1, 1, 1]>, <132, 5, 24, 19, 7, 0, 1, [1, 0, 0, 0, 0, 1, 1, 1]>, <133, 6, 25, 19, 7, 0, 1, [1, 0, 0, 0, 0, 1, 1, 1]>, <134, 7, 26, 19, 7, 0, 1, [1, 0, 0, 0, 0, 1, 1, 1]>, <135, 8, 27, 19, 7, 0, 1, [1, 0, 0, 0, 0, 1, 1, 1]>, <136, 9, 28, 19, 7, 0, 1, [1, 0, 0, 0, 0, 1, 1, 1]>, <137, 10, 29, 19, 7, 0, 1, [1, 0, 0, 0, 0, 1, 1, 1]>, <138, 11, 30, 19, 7, 0, 1, [1, 0, 0, 0, 0, 1, 1, 1]>, <139, 12, 31, 19, 7, 0, 1, [1, 0, 0, 0, 0, 1, 1, 1]>, <140, 13, 32, 19, 7, 0, 1, [1, 0, 0, 0, 0, 1, 1, 1]>, <141, 14, 33, 19, 7, 0, 1, [1, 0, 0, 0, 0, 1, 1, 1]>, <142, 15, 34, 19, 7, 0, 1, [1, 0, 0, 0, 0, 1, 1, 1]>, <143, 16, 35, 19, 7, 0, 1, [1, 0, 0, 0, 0, 1, 1, 1]>, <144, 1, 17, 16, 8, 0, 0, [1, 0, 0, 0, 0, 1, 1, 1]>, <145, 2, 18, 16, 8, 0, 0, [1, 0, 0, 0, 0, 1, 1, 1]>, <146, 3, 19, 16, 8, 0, 0, [1, 0, 0, 0, 0, 1, 1, 1]>, <147, 4, 20, 16, 8, 0, 0, [1, 0, 0, 0, 0, 1, 1, 1]>, <148, 5, 21, 16, 8, 0, 0, [1, 0, 0, 0, 0, 1, 1, 1]>, <149, 6, 22, 16, 8, 0, 0, [1, 0, 0, 0, 0, 1, 1, 1]>, <150, 10, 26, 16, 8, 0, 0, [1, 0, 0, 0, 0, 1, 1, 1]>, <151, 11, 27, 16, 8, 0, 0, [1, 0, 0, 0, 0, 1, 1, 1]>, <152, 12, 28, 16, 8, 0, 0, [1, 0, 0, 0, 0, 1, 1, 1]>, <153, 13, 29, 16, 8, 0, 0, [1, 0, 0, 0, 0, 1, 1, 1]>, <154, 14, 30, 16, 8, 0, 0, [1, 0, 0, 0, 0, 1, 1, 1]>, <155, 15, 31, 16, 8, 0, 0, [1, 0, 0, 0, 0, 1, 1, 1]>, <156, 16, 32, 16, 8, 0, 0, [1, 0, 0, 0, 0, 1, 1, 1]>, <157, 17, 33, 16, 8, 0, 0, [1, 0, 0, 0, 0, 1, 1, 1]>, <158, 18, 34, 16, 8, 0, 0, [1, 0, 0, 0, 0, 1, 1, 1]>, <159, 19, 35, 16, 8, 0, 0, [1, 0, 0, 0, 0, 1, 1, 1]>, <160, 3, 17, 14, 9, 1, 0, [1, 1, 1, 0, 0, 0, 0, 1]>, <161, 4, 18, 14, 9, 1, 0, [1, 1, 1, 0, 0, 0, 0, 1]>, <162, 5, 19, 14, 9, 1, 0, [1, 1, 1, 0, 0, 0, 0, 1]>, <163, 6, 20, 14, 9, 1, 0, [1, 1, 1, 0, 0, 0, 0, 1]>, <164, 12, 26, 14, 9, 1, 0, [1, 1, 1, 0, 0, 0, 0, 1]>, <165, 13, 27, 14, 9, 1, 0, [1, 1, 1, 0, 0, 0, 0, 1]>, <166, 14, 28, 14, 9, 1, 0, [1, 1, 1, 0, 0, 0, 0, 1]>, <167, 15, 29, 14, 9, 1, 0, [1, 1, 1, 0, 0, 0, 0, 1]>, <168, 17, 31, 14, 9, 1, 0, [1, 1, 1, 0, 0, 0, 0, 1]>, <169, 18, 32, 14, 9, 1, 0, [1, 1, 1, 0, 0, 0, 0, 1]>, <170, 19, 33, 14, 9, 1, 0, [1, 1, 1, 0, 0, 0, 0, 1]>, <171, 20, 34, 14, 9, 1, 0, [1, 1, 1, 0, 0, 0, 0, 1]>, <172, 21, 35, 14, 9, 1, 0, [1, 1, 1, 0, 0, 0, 0, 1]>, <173, 3, 17, 14, 10, 0, 0, [1, 1, 1, 1, 0, 0, 0, 0]>, <174, 4, 18, 14, 10, 0, 0, [1, 1, 1, 1, 0, 0, 0, 0]>, <175, 5, 19, 14, 10, 0, 0, [1, 1, 1, 1, 0, 0, 0, 0]>, <176, 6, 20, 14, 10, 0, 0, [1, 1, 1, 1, 0, 0, 0, 0]>, <177, 12, 26, 14, 10, 0, 0, [1, 1, 1, 1, 0, 0, 0, 0]>, <178, 13, 27, 14, 10, 0, 0, [1, 1, 1, 1, 0, 0, 0, 0]>, <179, 14, 28, 14, 10, 0, 0, [1, 1, 1, 1, 0, 0, 0, 0]>, <180, 15, 29, 14, 10, 0, 0, [1, 1, 1, 1, 0, 0, 0, 0]>, <181, 17, 31, 14, 10, 0, 0, [1, 1, 1, 1, 0, 0, 0, 0]>, <182, 18, 32, 14, 10, 0, 0, [1, 1, 1, 1, 0, 0, 0, 0]>, <183, 19, 33, 14, 10, 0, 0, [1, 1, 1, 1, 0, 0, 0, 0]>, <184, 20, 34, 14, 10, 0, 0, [1, 1, 1, 1, 0, 0, 0, 0]>, <185, 21, 35, 14, 10, 0, 0, [1, 1, 1, 1, 0, 0, 0, 0]>, <186, 0, 17, 17, 11, 1, 0, [1, 0, 0, 0, 0, 1, 1, 1]>, <187, 1, 18, 17, 11, 1, 0, [1, 0, 0, 0, 0, 1, 1, 1]>, <188, 2, 19, 17, 11, 1, 0, [1, 0, 0, 0, 0, 1, 1, 1]>, <189, 3, 20, 17, 11, 1, 0, [1, 0, 0, 0, 0, 1, 1, 1]>, <190, 4, 21, 17, 11, 1, 0, [1, 0, 0, 0, 0, 1, 1, 1]>, <191, 5, 22, 17, 11, 1, 0, [1, 0, 0, 0, 0, 1, 1, 1]>, <192, 6, 23, 17, 11, 1, 0, [1, 0, 0, 0, 0, 1, 1, 1]>, <193, 9, 26, 17, 11, 1, 0, [1, 0, 0, 0, 0, 1, 1, 1]>, <194, 10, 27, 17, 11, 1, 0, [1, 0, 0, 0, 0, 1, 1, 1]>, <195, 11, 28, 17, 11, 1, 0, [1, 0, 0, 0, 0, 1, 1, 1]>, <196, 12, 29, 17, 11, 1, 0, [1, 0, 0, 0, 0, 1, 1, 1]>, <197, 13, 30, 17, 11, 1, 0, [1, 0, 0, 0, 0, 1, 1, 1]>, <198, 14, 31, 17, 11, 1, 0, [1, 0, 0, 0, 0, 1, 1, 1]>, <199, 15, 32, 17, 11, 1, 0, [1, 0, 0, 0, 0, 1, 1, 1]>, <200, 16, 33, 17, 11, 1, 0, [1, 0, 0, 0, 0, 1, 1, 1]>, <201, 17, 34, 17, 11, 1, 0, [1, 0, 0, 0, 0, 1, 1, 1]>, <202, 18, 35, 17, 11, 1, 0, [1, 0, 0, 0, 0, 1, 1, 1]>, <203, 0, 17, 17, 12, 1, 0, [1, 0, 0, 0, 0, 1, 1, 1]>, <204, 1, 18, 17, 12, 1, 0, [1, 0, 0, 0, 0, 1, 1, 1]>, <205, 2, 19, 17, 12, 1, 0, [1, 0, 0, 0, 0, 1, 1, 1]>, <206, 3, 20, 17, 12, 1, 0, [1, 0, 0, 0, 0, 1, 1, 1]>, <207, 4, 21, 17, 12, 1, 0, [1, 0, 0, 0, 0, 1, 1, 1]>, <208, 5, 22, 17, 12, 1, 0, [1, 0, 0, 0, 0, 1, 1, 1]>, <209, 6, 23, 17, 12, 1, 0, [1, 0, 0, 0, 0, 1, 1, 1]>, <210, 9, 26, 17, 12, 1, 0, [1, 0, 0, 0, 0, 1, 1, 1]>, <211, 10, 27, 17, 12, 1, 0, [1, 0, 0, 0, 0, 1, 1, 1]>, <212, 11, 28, 17, 12, 1, 0, [1, 0, 0, 0, 0, 1, 1, 1]>, <213, 12, 29, 17, 12, 1, 0, [1, 0, 0, 0, 0, 1, 1, 1]>, <214, 13, 30, 17, 12, 1, 0, [1, 0, 0, 0, 0, 1, 1, 1]>, <215, 14, 31, 17, 12, 1, 0, [1, 0, 0, 0, 0, 1, 1, 1]>, <216, 15, 32, 17, 12, 1, 0, [1, 0, 0, 0, 0, 1, 1, 1]>, <217, 16, 33, 17, 12, 1, 0, [1, 0, 0, 0, 0, 1, 1, 1]>, <218, 17, 34, 17, 12, 1, 0, [1, 0, 0, 0, 0, 1, 1, 1]>, <219, 18, 35, 17, 12, 1, 0, [1, 0, 0, 0, 0, 1, 1, 1]>, <220, 0, 19, 19, 13, 0, 1, [1, 1, 1, 1, 0, 0, 0, 0]>, <221, 1, 20, 19, 13, 0, 1, [1, 1, 1, 1, 0, 0, 0, 0]>, <222, 2, 21, 19, 13, 0, 1, [1, 1, 1, 1, 0, 0, 0, 0]>, <223, 3, 22, 19, 13, 0, 1, [1, 1, 1, 1, 0, 0, 0, 0]>, <224, 4, 23, 19, 13, 0, 1, [1, 1, 1, 1, 0, 0, 0, 0]>, <225, 5, 24, 19, 13, 0, 1, [1, 1, 1, 1, 0, 0, 0, 0]>, <226, 6, 25, 19, 13, 0, 1, [1, 1, 1, 1, 0, 0, 0, 0]>, <227, 7, 26, 19, 13, 0, 1, [1, 1, 1, 1, 0, 0, 0, 0]>, <228, 8, 27, 19, 13, 0, 1, [1, 1, 1, 1, 0, 0, 0, 0]>, <229, 9, 28, 19, 13, 0, 1, [1, 1, 1, 1, 0, 0, 0, 0]>, <230, 10, 29, 19, 13, 0, 1, [1, 1, 1, 1, 0, 0, 0, 0]>, <231, 11, 30, 19, 13, 0, 1, [1, 1, 1, 1, 0, 0, 0, 0]>, <232, 12, 31, 19, 13, 0, 1, [1, 1, 1, 1, 0, 0, 0, 0]>, <233, 13, 32, 19, 13, 0, 1, [1, 1, 1, 1, 0, 0, 0, 0]>, <234, 14, 33, 19, 13, 0, 1, [1, 1, 1, 1, 0, 0, 0, 0]>, <235, 15, 34, 19, 13, 0, 1, [1, 1, 1, 1, 0, 0, 0, 0]>, <236, 16, 35, 19, 13, 0, 1, [1, 1, 1, 1, 0, 0, 0, 0]>, <237, 2, 17, 15, 14, 0, 1, [0, 0, 0, 0, 1, 1, 1, 1]>, <238, 3, 18, 15, 14, 0, 1, [0, 0, 0, 0, 1, 1, 1, 1]>, <239, 4, 19, 15, 14, 0, 1, [0, 0, 0, 0, 1, 1, 1, 1]>, <240, 5, 20, 15, 14, 0, 1, [0, 0, 0, 0, 1, 1, 1, 1]>, <241, 6, 21, 15, 14, 0, 1, [0, 0, 0, 0, 1, 1, 1, 1]>, <242, 11, 26, 15, 14, 0, 1, [0, 0, 0, 0, 1, 1, 1, 1]>, <243, 12, 27, 15, 14, 0, 1, [0, 0, 0, 0, 1, 1, 1, 1]>, <244, 13, 28, 15, 14, 0, 1, [0, 0, 0, 0, 1, 1, 1, 1]>, <245, 14, 29, 15, 14, 0, 1, [0, 0, 0, 0, 1, 1, 1, 1]>, <246, 15, 30, 15, 14, 0, 1, [0, 0, 0, 0, 1, 1, 1, 1]>, <247, 16, 31, 15, 14, 0, 1, [0, 0, 0, 0, 1, 1, 1, 1]>, <248, 17, 32, 15, 14, 0, 1, [0, 0, 0, 0, 1, 1, 1, 1]>, <249, 18, 33, 15, 14, 0, 1, [0, 0, 0, 0, 1, 1, 1, 1]>, <250, 19, 34, 15, 14, 0, 1, [0, 0, 0, 0, 1, 1, 1, 1]>, <251, 20, 35, 15, 14, 0, 1, [0, 0, 0, 0, 1, 1, 1, 1]>, <252, 0, 17, 17, 15, 0, 0, [0, 0, 0, 0, 1, 1, 1, 1]>, <253, 1, 18, 17, 15, 0, 0, [0, 0, 0, 0, 1, 1, 1, 1]>, <254, 2, 19, 17, 15, 0, 0, [0, 0, 0, 0, 1, 1, 1, 1]>, <255, 3, 20, 17, 15, 0, 0, [0, 0, 0, 0, 1, 1, 1, 1]>, <256, 4, 21, 17, 15, 0, 0, [0, 0, 0, 0, 1, 1, 1, 1]>, <257, 5, 22, 17, 15, 0, 0, [0, 0, 0, 0, 1, 1, 1, 1]>, <258, 6, 23, 17, 15, 0, 0, [0, 0, 0, 0, 1, 1, 1, 1]>, <259, 9, 26, 17, 15, 0, 0, [0, 0, 0, 0, 1, 1, 1, 1]>, <260, 10, 27, 17, 15, 0, 0, [0, 0, 0, 0, 1, 1, 1, 1]>, <261, 11, 28, 17, 15, 0, 0, [0, 0, 0, 0, 1, 1, 1, 1]>, <262, 12, 29, 17, 15, 0, 0, [0, 0, 0, 0, 1, 1, 1, 1]>, <263, 13, 30, 17, 15, 0, 0, [0, 0, 0, 0, 1, 1, 1, 1]>, <264, 14, 31, 17, 15, 0, 0, [0, 0, 0, 0, 1, 1, 1, 1]>, <265, 15, 32, 17, 15, 0, 0, [0, 0, 0, 0, 1, 1, 1, 1]>, <266, 16, 33, 17, 15, 0, 0, [0, 0, 0, 0, 1, 1, 1, 1]>, <267, 17, 34, 17, 15, 0, 0, [0, 0, 0, 0, 1, 1, 1, 1]>, <268, 18, 35, 17, 15, 0, 0, [0, 0, 0, 0, 1, 1, 1, 1]>, <269, 4, 17, 13, 16, 0, 0, [1, 0, 0, 0, 0, 1, 1, 1]>, <270, 5, 18, 13, 16, 0, 0, [1, 0, 0, 0, 0, 1, 1, 1]>, <271, 6, 19, 13, 16, 0, 0, [1, 0, 0, 0, 0, 1, 1, 1]>, <272, 13, 26, 13, 16, 0, 0, [1, 0, 0, 0, 0, 1, 1, 1]>, <273, 14, 27, 13, 16, 0, 0, [1, 0, 0, 0, 0, 1, 1, 1]>, <274, 15, 28, 13, 16, 0, 0, [1, 0, 0, 0, 0, 1, 1, 1]>, <275, 18, 31, 13, 16, 0, 0, [1, 0, 0, 0, 0, 1, 1, 1]>, <276, 19, 32, 13, 16, 0, 0, [1, 0, 0, 0, 0, 1, 1, 1]>, <277, 20, 33, 13, 16, 0, 0, [1, 0, 0, 0, 0, 1, 1, 1]>, <278, 21, 34, 13, 16, 0, 0, [1, 0, 0, 0, 0, 1, 1, 1]>, <279, 22, 35, 13, 16, 0, 0, [1, 0, 0, 0, 0, 1, 1, 1]>, <280, 0, 17, 17, 17, 1, 0, [1, 1, 0, 0, 0, 0, 1, 1]>, <281, 1, 18, 17, 17, 1, 0, [1, 1, 0, 0, 0, 0, 1, 1]>, <282, 2, 19, 17, 17, 1, 0, [1, 1, 0, 0, 0, 0, 1, 1]>, <283, 3, 20, 17, 17, 1, 0, [1, 1, 0, 0, 0, 0, 1, 1]>, <284, 4, 21, 17, 17, 1, 0, [1, 1, 0, 0, 0, 0, 1, 1]>, <285, 5, 22, 17, 17, 1, 0, [1, 1, 0, 0, 0, 0, 1, 1]>, <286, 6, 23, 17, 17, 1, 0, [1, 1, 0, 0, 0, 0, 1, 1]>, <287, 9, 26, 17, 17, 1, 0, [1, 1, 0, 0, 0, 0, 1, 1]>, <288, 10, 27, 17, 17, 1, 0, [1, 1, 0, 0, 0, 0, 1, 1]>, <289, 11, 28, 17, 17, 1, 0, [1, 1, 0, 0, 0, 0, 1, 1]>, <290, 12, 29, 17, 17, 1, 0, [1, 1, 0, 0, 0, 0, 1, 1]>, <291, 13, 30, 17, 17, 1, 0, [1, 1, 0, 0, 0, 0, 1, 1]>, <292, 14, 31, 17, 17, 1, 0, [1, 1, 0, 0, 0, 0, 1, 1]>, <293, 15, 32, 17, 17, 1, 0, [1, 1, 0, 0, 0, 0, 1, 1]>, <294, 16, 33, 17, 17, 1, 0, [1, 1, 0, 0, 0, 0, 1, 1]>, <295, 17, 34, 17, 17, 1, 0, [1, 1, 0, 0, 0, 0, 1, 1]>, <296, 18, 35, 17, 17, 1, 0, [1, 1, 0, 0, 0, 0, 1, 1]>, <297, 1, 17, 16, 18, 0, 1, [1, 1, 1, 0, 0, 0, 0, 1]>, <298, 2, 18, 16, 18, 0, 1, [1, 1, 1, 0, 0, 0, 0, 1]>, <299, 3, 19, 16, 18, 0, 1, [1, 1, 1, 0, 0, 0, 0, 1]>, <300, 4, 20, 16, 18, 0, 1, [1, 1, 1, 0, 0, 0, 0, 1]>, <301, 5, 21, 16, 18, 0, 1, [1, 1, 1, 0, 0, 0, 0, 1]>, <302, 6, 22, 16, 18, 0, 1, [1, 1, 1, 0, 0, 0, 0, 1]>, <303, 10, 26, 16, 18, 0, 1, [1, 1, 1, 0, 0, 0, 0, 1]>, <304, 11, 27, 16, 18, 0, 1, [1, 1, 1, 0, 0, 0, 0, 1]>, <305, 12, 28, 16, 18, 0, 1, [1, 1, 1, 0, 0, 0, 0, 1]>, <306, 13, 29, 16, 18, 0, 1, [1, 1, 1, 0, 0, 0, 0, 1]>, <307, 14, 30, 16, 18, 0, 1, [1, 1, 1, 0, 0, 0, 0, 1]>, <308, 15, 31, 16, 18, 0, 1, [1, 1, 1, 0, 0, 0, 0, 1]>, <309, 16, 32, 16, 18, 0, 1, [1, 1, 1, 0, 0, 0, 0, 1]>, <310, 17, 33, 16, 18, 0, 1, [1, 1, 1, 0, 0, 0, 0, 1]>, <311, 18, 34, 16, 18, 0, 1, [1, 1, 1, 0, 0, 0, 0, 1]>, <312, 19, 35, 16, 18, 0, 1, [1, 1, 1, 0, 0, 0, 0, 1]>, <313, 4, 17, 13, 19, 0, 1, [1, 1, 0, 0, 0, 0, 1, 1]>, <314, 5, 18, 13, 19, 0, 1, [1, 1, 0, 0, 0, 0, 1, 1]>, <315, 6, 19, 13, 19, 0, 1, [1, 1, 0, 0, 0, 0, 1, 1]>, <316, 13, 26, 13, 19, 0, 1, [1, 1, 0, 0, 0, 0, 1, 1]>, <317, 14, 27, 13, 19, 0, 1, [1, 1, 0, 0, 0, 0, 1, 1]>, <318, 15, 28, 13, 19, 0, 1, [1, 1, 0, 0, 0, 0, 1, 1]>, <319, 18, 31, 13, 19, 0, 1, [1, 1, 0, 0, 0, 0, 1, 1]>, <320, 19, 32, 13, 19, 0, 1, [1, 1, 0, 0, 0, 0, 1, 1]>, <321, 20, 33, 13, 19, 0, 1, [1, 1, 0, 0, 0, 0, 1, 1]>, <322, 21, 34, 13, 19, 0, 1, [1, 1, 0, 0, 0, 0, 1, 1]>, <323, 22, 35, 13, 19, 0, 1, [1, 1, 0, 0, 0, 0, 1, 1]>, <324, 4, 17, 13, 20, 0, 0, [0, 1, 1, 1, 1, 0, 0, 0]>, <325, 5, 18, 13, 20, 0, 0, [0, 1, 1, 1, 1, 0, 0, 0]>, <326, 6, 19, 13, 20, 0, 0, [0, 1, 1, 1, 1, 0, 0, 0]>, <327, 13, 26, 13, 20, 0, 0, [0, 1, 1, 1, 1, 0, 0, 0]>, <328, 14, 27, 13, 20, 0, 0, [0, 1, 1, 1, 1, 0, 0, 0]>, <329, 15, 28, 13, 20, 0, 0, [0, 1, 1, 1, 1, 0, 0, 0]>, <330, 18, 31, 13, 20, 0, 0, [0, 1, 1, 1, 1, 0, 0, 0]>, <331, 19, 32, 13, 20, 0, 0, [0, 1, 1, 1, 1, 0, 0, 0]>, <332, 20, 33, 13, 20, 0, 0, [0, 1, 1, 1, 1, 0, 0, 0]>, <333, 21, 34, 13, 20, 0, 0, [0, 1, 1, 1, 1, 0, 0, 0]>, <334, 22, 35, 13, 20, 0, 0, [0, 1, 1, 1, 1, 0, 0, 0]>, <335, 4, 17, 13, 21, 1, 0, [0, 0, 0, 1, 1, 1, 1, 0]>, <336, 5, 18, 13, 21, 1, 0, [0, 0, 0, 1, 1, 1, 1, 0]>, <337, 6, 19, 13, 21, 1, 0, [0, 0, 0, 1, 1, 1, 1, 0]>, <338, 13, 26, 13, 21, 1, 0, [0, 0, 0, 1, 1, 1, 1, 0]>, <339, 14, 27, 13, 21, 1, 0, [0, 0, 0, 1, 1, 1, 1, 0]>, <340, 15, 28, 13, 21, 1, 0, [0, 0, 0, 1, 1, 1, 1, 0]>, <341, 18, 31, 13, 21, 1, 0, [0, 0, 0, 1, 1, 1, 1, 0]>, <342, 19, 32, 13, 21, 1, 0, [0, 0, 0, 1, 1, 1, 1, 0]>, <343, 20, 33, 13, 21, 1, 0, [0, 0, 0, 1, 1, 1, 1, 0]>, <344, 21, 34, 13, 21, 1, 0, [0, 0, 0, 1, 1, 1, 1, 0]>, <345, 22, 35, 13, 21, 1, 0, [0, 0, 0, 1, 1, 1, 1, 0]>};
